(set-info :smt-lib-version 2.6)
(set-logic UF)
(set-info :source |Benchmarks from the paper: "Extending Sledgehammer with SMT Solvers" by Jasmin Blanchette, Sascha Bohme, and Lawrence C. Paulson, CADE 2011.  Translated to SMT2 by Andrew Reynolds and Morgan Deters.|)
(set-info :category "industrial")
(set-info :status unsat)
(declare-sort S1 0)
(declare-sort S2 0)
(declare-sort S3 0)
(declare-sort S4 0)
(declare-sort S5 0)
(declare-sort S6 0)
(declare-sort S7 0)
(declare-sort S8 0)
(declare-sort S9 0)
(declare-sort S10 0)
(declare-sort S11 0)
(declare-sort S12 0)
(declare-sort S13 0)
(declare-sort S14 0)
(declare-sort S15 0)
(declare-sort S16 0)
(declare-sort S17 0)
(declare-sort S18 0)
(declare-sort S19 0)
(declare-fun f1 () S1)
(declare-fun f2 () S1)
(declare-fun f3 (S3 S2) S4)
(declare-fun f4 () S3)
(declare-fun f5 (S5 S6) S4)
(declare-fun f6 (S7 S8) S5)
(declare-fun f7 (S9 S6) S7)
(declare-fun f8 () S9)
(declare-fun f9 (S2) S6)
(declare-fun f10 (S2) S8)
(declare-fun f11 (S2) S6)
(declare-fun f12 (S10 S4) S1)
(declare-fun f13 () S10)
(declare-fun f14 (S11 S2) S1)
(declare-fun f15 () S11)
(declare-fun f16 (S11 S11) S1)
(declare-fun f17 (S12 S11) S11)
(declare-fun f18 (S2) S12)
(declare-fun f19 (S2 S11) S1)
(declare-fun f20 (S10 S10) S1)
(declare-fun f21 (S13 S10) S10)
(declare-fun f22 (S4) S13)
(declare-fun f23 (S4 S10) S1)
(declare-fun f24 (S15 S10) S11)
(declare-fun f25 (S14) S15)
(declare-fun f26 (S14 S4) S2)
(declare-fun f27 (S16 S18) S1)
(declare-fun f28 (S17 S11) S18)
(declare-fun f29 (S17 S2) S16)
(declare-fun f30 (S19 S11) S10)
(declare-fun f31 (S3) S19)
(declare-fun f32 () S11)
(declare-fun f33 () S10)
(declare-fun f34 (S11) S11)
(declare-fun f35 (S10) S10)
(declare-fun f36 () S2)
(declare-fun f37 () S11)
(assert (not (= f1 f2)))
(assert (forall ((?v0 S2)) (= (f3 f4 ?v0) (f5 (f6 (f7 f8 (f9 ?v0)) (f10 ?v0)) (f11 ?v0)))))
(assert (forall ((?v0 S4)) (= (= (f12 f13 ?v0) f1) false)))
(assert (forall ((?v0 S2)) (= (= (f14 f15 ?v0) f1) false)))
(assert (forall ((?v0 S2) (?v1 S11) (?v2 S11)) (= (= (f16 (f17 (f18 ?v0) ?v1) ?v2) f1) (and (= (f19 ?v0 ?v2) f1) (= (f16 ?v1 ?v2) f1)))))
(assert (forall ((?v0 S4) (?v1 S10) (?v2 S10)) (= (= (f20 (f21 (f22 ?v0) ?v1) ?v2) f1) (and (= (f23 ?v0 ?v2) f1) (= (f20 ?v1 ?v2) f1)))))
(assert (forall ((?v0 S2) (?v1 S14) (?v2 S10)) (= (= (f19 ?v0 (f24 (f25 ?v1) ?v2)) f1) (exists ((?v3 S4)) (and (= (f23 ?v3 ?v2) f1) (= ?v0 (f26 ?v1 ?v3)))))))
(assert (forall ((?v0 S16) (?v1 S17) (?v2 S11)) (= (= (f27 ?v0 (f28 ?v1 ?v2)) f1) (exists ((?v3 S2)) (and (= (f19 ?v3 ?v2) f1) (= ?v0 (f29 ?v1 ?v3)))))))
(assert (forall ((?v0 S4) (?v1 S3) (?v2 S11)) (= (= (f23 ?v0 (f30 (f31 ?v1) ?v2)) f1) (exists ((?v3 S2)) (and (= (f19 ?v3 ?v2) f1) (= ?v0 (f3 ?v1 ?v3)))))))
(assert (forall ((?v0 S11)) (= (f16 f32 ?v0) f1)))
(assert (forall ((?v0 S10)) (= (f20 f33 ?v0) f1)))
(assert (= f32 (f34 f15)))
(assert (= f33 (f35 f13)))
(assert (not (=> (= (f19 f36 f37) f1) (= (f20 (f21 (f22 (f5 (f6 (f7 f8 (f9 f36)) (f10 f36)) (f11 f36))) f33) (f30 (f31 f4) f37)) f1))))
(check-sat)
(exit)
